c SAT problem
p wcnf 382 1488
1 60 3150 0
1 60 -3135 0
1 75 76 0
1 75 3120 0
1 -75 60 0
1 -75 -3135 0
1 90 -3075 0
1 -90 105 0
1 -90 3090 0
1 90 3135 0
1 -105 -3075 0
1 105 106 0
1 105 3060 0
1 -105 -90 0
1 -3120 75 0
1 3120 3121 0
1 3135 3136 0
1 3135 -135 0
1 -3150 105 0
1 -3150 3151 0
1 -3150 -181 0
1 -3165 136 0
1 -3165 105 0
1 -3165 75 0
1 3165 -181 0
1 -3165 60 0
1 120 3105 0
1 -120 3075 0
1 120 135 0
1 120 121 0
1 135 3120 0
1 150 3060 0
1 -150 3135 0
1 -165 3075 0
1 -165 -3090 0
1 165 -3060 0
1 165 150 0
1 3060 -195 0
1 -3060 3075 0
1 3060 -165 0
1 3060 -210 0
1 3060 -180 0
1 -3060 3061 0
1 3075 -135 0
1 -3075 105 0
1 -3075 -210 0
1 3090 -226 0
1 3090 -105 0
1 -3090 -181 0
1 -3090 255 0
1 3105 -196 0
1 -3105 3090 0
1 180 195 0
1 180 -3045 0
1 180 3015 0
1 -180 -3030 0
1 -195 -3075 0
1 195 196 0
1 195 3030 0
1 210 3030 0
1 225 3075 0
1 -225 3000 0
1 3000 -225 0
1 -3015 -195 0
1 -3015 210 0
1 3030 225 0
1 3030 165 0
1 3030 300 0
1 3030 255 0
1 3045 -195 0
1 -61 -3330 0
1 76 3330 0
1 -76 -61 0
1 91 -3315 0
1 91 3285 0
1 91 -90 0
1 91 -92 0
1 106 3300 0
1 106 3270 0
1 106 3315 0
1 106 3285 0
1 -106 3255 0
1 3300 -197 0
1 -3300 166 0
1 3300 3301 0
1 -3300 76 0
1 3300 -151 0
1 3300 91 0
1 -3315 -3300 0
1 -3315 -3316 0
1 3315 -182 0
1 3330 -197 0
1 3330 -122 0
1 3345 3330 0
1 3345 -3346 0
1 -3345 -91 0
1 -121 -3300 0
1 -121 3315 0
1 121 -122 0
1 121 3165 0
1 -136 -3270 0
1 -136 3150 0
1 -136 -3255 0
1 -136 3165 0
1 151 -3270 0
1 151 -3240 0
1 151 3180 0
1 -151 -3150 0
1 -151 3225 0
1 -151 -3195 0
1 -151 -3165 0
1 166 -3240 0
1 166 -3315 0
1 -166 -3285 0
1 -3240 -256 0
1 -3240 196 0
1 -3240 3241 0
1 -3240 -241 0
1 -3240 181 0
1 3240 121 0
1 3255 -196 0
1 -3255 -106 0
1 3255 151 0
1 3255 -3256 0
1 3255 -91 0
1 3270 227 0
1 -3270 -197 0
1 -3270 -3271 0
1 3270 -136 0
1 -3270 -106 0
1 3270 -241 0
1 -3270 121 0
1 -3285 -136 0
1 3285 -182 0
1 3285 -121 0
1 3285 -91 0
1 181 3105 0
1 181 -196 0
1 181 3180 0
1 181 3150 0
1 -181 -3120 0
1 -181 -3225 0
1 -196 3105 0
1 196 -195 0
1 196 -3225 0
1 196 -3165 0
1 196 3135 0
1 -211 -3136 0
1 211 -3180 0
1 211 3090 0
1 -211 -210 0
1 -211 3225 0
1 -211 3166 0
1 226 3136 0
1 226 3105 0
1 -226 -3090 0
1 -226 3225 0
1 226 3195 0
1 226 3166 0
1 3180 -196 0
1 3180 166 0
1 3180 301 0
1 -3195 -196 0
1 3195 3180 0
1 -3195 270 0
1 3195 3196 0
1 3195 211 0
1 -3195 316 0
1 -3210 -196 0
1 -3210 271 0
1 3210 -241 0
1 3210 -286 0
1 3225 256 0
1 -3225 -196 0
1 3225 166 0
1 3225 3210 0
1 3225 271 0
1 3225 -316 0
1 -240 3075 0
1 -240 -3151 0
1 -240 -3090 0
1 240 -3121 0
1 -255 -3075 0
1 255 3180 0
1 -255 -3151 0
1 255 -240 0
1 -270 -3106 0
1 270 271 0
1 270 -3151 0
1 270 3121 0
1 -270 3030 0
1 -270 3166 0
1 285 -3180 0
1 -285 -3030 0
1 -285 3166 0
1 3121 3136 0
1 -3121 361 0
1 3121 -270 0
1 3121 240 0
1 -3121 376 0
1 3121 -345 0
1 3136 300 0
1 3136 -240 0
1 -3136 -3121 0
1 -3136 211 0
1 3136 285 0
1 -3151 -3166 0
1 3166 361 0
1 3166 -301 0
1 -3166 -211 0
1 -300 3015 0
1 300 -3091 0
1 -300 315 0
1 -315 3136 0
1 315 -3106 0
1 315 3000 0
1 330 3076 0
1 330 345 0
1 330 -3016 0
1 330 331 0
1 330 -3061 0
1 330 -3001 0
1 345 -3106 0
1 -345 -3121 0
1 345 -3001 0
1 -3061 330 0
1 3061 270 0
1 -3061 -3060 0
1 3061 345 0
1 3076 300 0
1 3076 -405 0
1 3091 -391 0
1 -3091 3092 0
1 -3091 -406 0
1 -3091 315 0
1 3091 -285 0
1 -3106 3105 0
1 -3106 -420 0
1 -3106 -315 0
1 -360 3046 0
1 360 -361 0
1 -375 -3031 0
1 390 -3016 0
1 -390 3031 0
1 -405 -3016 0
1 3001 390 0
1 3001 375 0
1 3016 3015 0
1 3016 -360 0
1 -3016 375 0
1 -3016 -345 0
1 -3016 3001 0
1 -3031 450 0
1 -3031 390 0
1 3031 330 0
1 3031 -3030 0
1 3031 -345 0
1 3046 480 0
1 -62 3495 0
1 62 3480 0
1 -62 63 0
1 77 -76 0
1 -77 -3510 0
1 -77 -62 0
1 -92 -3525 0
1 -92 3495 0
1 92 -107 0
1 -92 -3435 0
1 -92 -3450 0
1 -92 -93 0
1 -107 3435 0
1 107 108 0
1 107 -3510 0
1 3480 167 0
1 3480 -3495 0
1 3480 -137 0
1 -3480 183 0
1 3480 3481 0
1 3495 3480 0
1 -3495 -3496 0
1 3495 -107 0
1 -3495 -77 0
1 3495 -62 0
1 -3510 -3511 0
1 -3510 -107 0
1 3510 153 0
1 -3525 198 0
1 3525 -183 0
1 3525 -153 0
1 3525 62 0
1 122 -3330 0
1 122 -3465 0
1 122 -3345 0
1 137 3330 0
1 137 138 0
1 -137 -3450 0
1 137 122 0
1 -152 3360 0
1 -152 -3345 0
1 -152 -151 0
1 152 153 0
1 -152 3420 0
1 -167 3330 0
1 -167 3480 0
1 167 168 0
1 -167 3435 0
1 -167 3375 0
1 -167 -3345 0
1 -167 -152 0
1 3420 -257 0
1 3420 182 0
1 -3435 197 0
1 -3435 242 0
1 -3435 -212 0
1 3435 3420 0
1 3435 92 0
1 -3450 -107 0
1 3450 152 0
1 3465 -228 0
1 -3465 152 0
1 3465 122 0
1 -182 -197 0
1 182 3270 0
1 182 3345 0
1 182 -3315 0
1 182 -183 0
1 -182 -3420 0
1 -197 3405 0
1 -197 -3285 0
1 212 -227 0
1 -212 3301 0
1 -212 -3405 0
1 -212 3316 0
1 212 -3390 0
1 227 -3301 0
1 227 3375 0
1 227 -3346 0
1 -227 -212 0
1 227 3316 0
1 227 3420 0
1 3360 -256 0
1 -3360 -302 0
1 3360 -3375 0
1 3360 -182 0
1 -3360 -317 0
1 -3360 -286 0
1 3375 -241 0
1 3390 -167 0
1 -3390 -272 0
1 3390 317 0
1 3405 -242 0
1 -3405 212 0
1 -3405 317 0
1 3405 3390 0
1 -3405 -287 0
1 -241 -3270 0
1 -241 3255 0
1 256 -3270 0
1 256 -3210 0
1 -256 -3375 0
1 -256 3316 0
1 -271 3271 0
1 -271 -3375 0
1 271 272 0
1 -271 -3225 0
1 286 3271 0
1 286 -271 0
1 -3301 3302 0
1 -3301 271 0
1 3301 -212 0
1 3316 3301 0
1 3316 -362 0
1 3316 331 0
1 -3316 -241 0
1 -3316 -316 0
1 3331 256 0
1 3331 -302 0
1 3331 -3346 0
1 3331 -212 0
1 -3346 302 0
1 3346 271 0
1 3346 -286 0
1 -301 -3271 0
1 301 3241 0
1 301 -300 0
1 -301 -316 0
1 316 -3225 0
1 331 -3271 0
1 -331 3241 0
1 331 3211 0
1 -331 3181 0
1 331 3316 0
1 331 -3286 0
1 331 3256 0
1 346 3211 0
1 -346 -3151 0
1 346 3316 0
1 -346 -345 0
1 346 -347 0
1 -346 -3166 0
1 3241 331 0
1 3241 -301 0
1 -3241 436 0
1 3241 -406 0
1 -3241 -376 0
1 -3241 346 0
1 3241 -316 0
1 3256 -361 0
1 3256 301 0
1 -3256 436 0
1 3256 3257 0
1 3256 316 0
1 -3271 421 0
1 -3271 3270 0
1 3271 362 0
1 3286 3287 0
1 3286 -392 0
1 3286 407 0
1 3286 -316 0
1 -361 -3136 0
1 -361 3106 0
1 361 -3256 0
1 -361 3181 0
1 -376 361 0
1 376 3226 0
1 -376 -3196 0
1 -391 3196 0
1 406 3122 0
1 -406 3167 0
1 3181 391 0
1 3181 -361 0
1 -3181 496 0
1 -3181 406 0
1 3181 376 0
1 -3196 -481 0
1 3196 -450 0
1 3196 -331 0
1 3196 496 0
1 3196 -435 0
1 -3196 406 0
1 3211 3226 0
1 3211 361 0
1 -3211 3210 0
1 3211 -406 0
1 -3211 -346 0
1 3226 -481 0
1 -3226 361 0
1 3226 -406 0
1 420 -3046 0
1 420 -3181 0
1 -420 -3152 0
1 420 3091 0
1 420 3196 0
1 -435 -3106 0
1 435 3122 0
1 435 -436 0
1 435 -3031 0
1 -435 -3167 0
1 -450 3137 0
1 450 -465 0
1 -450 -3122 0
1 -450 3062 0
1 -465 3107 0
1 -465 3077 0
1 -465 3122 0
1 -465 -3031 0
1 -3122 -480 0
1 3122 -420 0
1 3122 -3123 0
1 -3122 510 0
1 3137 480 0
1 -3137 391 0
1 3137 -556 0
1 -3152 420 0
1 -3152 556 0
1 3152 -465 0
1 3152 -541 0
1 3152 511 0
1 -3167 3168 0
1 -3167 450 0
1 3167 420 0
1 -3167 391 0
1 -3167 -526 0
1 -3167 -465 0
1 3167 -3152 0
1 -3167 -3166 0
1 -480 3107 0
1 -480 -3077 0
1 480 3092 0
1 495 -3107 0
1 -495 -3122 0
1 -510 3137 0
1 -510 3047 0
1 510 3017 0
1 510 3032 0
1 510 511 0
1 -525 -3107 0
1 -525 -3047 0
1 525 526 0
1 -525 -3002 0
1 -525 -510 0
1 -3062 450 0
1 -3062 585 0
1 -3062 525 0
1 3062 -600 0
1 -3062 540 0
1 -3077 450 0
1 3077 585 0
1 -3077 -495 0
1 -3077 -570 0
1 3077 510 0
1 -3092 480 0
1 3092 450 0
1 3092 -615 0
1 -3092 556 0
1 -3107 3092 0
1 3107 -600 0
1 -3107 -510 0
1 540 -3077 0
1 -540 -555 0
1 540 -3002 0
1 -540 541 0
1 555 -3062 0
1 -555 -3032 0
1 570 3062 0
1 570 -571 0
1 585 3017 0
1 -585 3062 0
1 -585 570 0
1 3002 -585 0
1 3002 -525 0
1 -3002 -510 0
1 -3017 -3002 0
1 3017 525 0
1 -3017 -660 0
1 3017 -570 0
1 -3032 -645 0
1 3032 -3047 0
1 -3032 -555 0
1 3032 -525 0
1 -3032 630 0
1 -3032 -3031 0
1 -3032 -600 0
1 3032 -510 0
1 -3047 -555 0
1 -3047 660 0
1 -3047 -570 0
1 -63 -78 0
1 63 3705 0
1 -63 -3675 0
1 93 3690 0
1 -93 108 0
1 93 -3660 0
1 93 3675 0
1 108 3615 0
1 -3675 -168 0
1 3675 3660 0
1 -3690 -78 0
1 3690 -93 0
1 3705 -63 0
1 123 -3510 0
1 123 -3645 0
1 -123 3615 0
1 -138 -3660 0
1 138 -3675 0
1 -138 3615 0
1 -153 -3585 0
1 153 3555 0
1 153 -168 0
1 153 -3570 0
1 -153 3510 0
1 -153 -152 0
1 -153 3675 0
1 153 -3615 0
1 168 3660 0
1 168 -3570 0
1 -168 -3675 0
1 -3600 258 0
1 3600 -228 0
1 3600 138 0
1 3600 -108 0
1 3600 3601 0
1 3600 213 0
1 3600 153 0
1 -3600 93 0
1 -3600 -3615 0
1 -3615 -3616 0
1 3615 168 0
1 -3615 -3600 0
1 -3615 -93 0
1 -3630 -258 0
1 3630 -138 0
1 -3630 108 0
1 3645 168 0
1 -3645 -138 0
1 -3645 -3630 0
1 3645 153 0
1 -3645 -123 0
1 -3645 -93 0
1 183 3555 0
1 183 3495 0
1 -183 3540 0
1 198 197 0
1 -198 3570 0
1 198 3540 0
1 198 3615 0
1 213 3555 0
1 -213 3511 0
1 -213 3450 0
1 228 3465 0
1 228 3600 0
1 -228 3540 0
1 3540 -213 0
1 -3555 3556 0
1 3555 272 0
1 -3555 -3540 0
1 -3555 183 0
1 3555 -153 0
1 -3555 318 0
1 -3570 -303 0
1 -3570 243 0
1 3570 -3571 0
1 3585 258 0
1 -3585 -213 0
1 -242 -3526 0
1 -242 3496 0
1 -242 3465 0
1 -242 3435 0
1 242 241 0
1 -242 3450 0
1 -242 -3390 0
1 257 3555 0
1 -257 -3496 0
1 -257 3405 0
1 -257 -3390 0
1 272 -3555 0
1 -272 271 0
1 272 -3511 0
1 272 -3451 0
1 -287 -3555 0
1 -287 3496 0
1 -287 -272 0
1 -287 -3421 0
1 3496 257 0
1 3496 -228 0
1 -3496 363 0
1 -3496 -332 0
1 3496 272 0
1 -3496 -3481 0
1 -3496 378 0
1 -3511 -228 0
1 3511 333 0
1 3511 3510 0
1 -3511 -318 0
1 -3526 -3527 0
1 3526 -363 0
1 3526 333 0
1 -3526 242 0
1 -3526 213 0
1 -3526 -378 0
1 -3526 -318 0
1 -302 -3496 0
1 302 3405 0
1 -302 -303 0
1 302 -3346 0
1 -302 -3451 0
1 -302 3421 0
1 302 -3390 0
1 -317 3375 0
1 317 -3346 0
1 -317 316 0
1 317 3421 0
1 332 3361 0
1 332 3451 0
1 -332 -347 0
1 332 -3391 0
1 -347 3361 0
1 347 3496 0
1 347 -3466 0
1 -347 332 0
1 347 3436 0
1 347 3376 0
1 3421 392 0
1 3421 -437 0
1 -3436 -272 0
1 -3436 407 0
1 -3436 -377 0
1 3451 3466 0
1 -3451 -3450 0
1 3451 -378 0
1 -3451 3452 0
1 -3466 -393 0
1 -3466 -3465 0
1 3466 332 0
1 3466 3451 0
1 3466 -408 0
1 -3466 -347 0
1 362 3361 0
1 -362 -3436 0
1 -362 3406 0
1 -362 -377 0
1 377 -3271 0
1 -377 362 0
1 -377 -3436 0
1 377 -3391 0
1 -392 3332 0
1 392 -3302 0
1 392 -393 0
1 -392 -3436 0
1 -392 -3406 0
1 -392 3317 0
1 -392 -3421 0
1 -407 -3332 0
1 407 3302 0
1 407 -3436 0
1 407 3317 0
1 -407 -3421 0
1 -3361 -451 0
1 3361 421 0
1 -3361 347 0
1 3376 -451 0
1 3376 466 0
1 -3376 -3377 0
1 -3376 -407 0
1 -3376 377 0
1 -3391 482 0
1 -3391 -422 0
1 3391 -407 0
1 -3391 -347 0
1 3406 362 0
1 -3406 437 0
1 421 422 0
1 -421 3302 0
1 421 436 0
1 -421 -3286 0
1 436 -3332 0
1 436 437 0
1 -436 3286 0
1 451 3361 0
1 -451 3302 0
1 -451 3272 0
1 -451 -3376 0
1 -451 3347 0
1 -451 -3317 0
1 451 3257 0
1 466 451 0
1 -466 -3332 0
1 -466 -3272 0
1 -466 3242 0
1 -3302 -421 0
1 3302 3301 0
1 -3302 392 0
1 -3302 436 0
1 3302 407 0
1 -3302 511 0
1 3317 392 0
1 3317 -557 0
1 -3317 -526 0
1 3317 407 0
1 3332 -482 0
1 3332 451 0
1 3332 -3347 0
1 -3332 436 0
1 3332 407 0
1 3347 421 0
1 -3347 466 0
1 -481 -482 0
1 481 -3211 0
1 481 3257 0
1 -481 3167 0
1 -496 -481 0
1 -496 3272 0
1 -496 3181 0
1 -496 -3152 0
1 -496 3226 0
1 -496 -3196 0
1 496 3167 0
1 511 3182 0
1 -511 3227 0
1 -511 -510 0
1 -526 3302 0
1 -526 -3242 0
1 -526 511 0
1 526 -3182 0
1 -526 527 0
1 526 3287 0
1 526 3257 0
1 -3242 -451 0
1 -3242 -616 0
1 -3242 586 0
1 -3242 556 0
1 3242 -541 0
1 -3257 -451 0
1 3257 -556 0
1 -3257 526 0
1 3257 -601 0
1 3257 -571 0
1 -3257 511 0
1 3272 -451 0
1 -3272 -3271 0
1 3272 466 0
1 -3272 601 0
1 3272 511 0
1 3287 616 0
1 3287 -3272 0
1 -3287 -587 0
1 -3287 -601 0
1 -3287 -572 0
1 3287 511 0
1 -541 -3137 0
1 541 -3167 0
1 -556 3212 0
1 -556 -3122 0
1 -556 3197 0
1 556 3227 0
1 556 -541 0
1 -556 -3167 0
1 -571 -3107 0
1 571 -3242 0
1 571 -570 0
1 571 -3227 0
1 -586 -587 0
1 -586 3092 0
1 -586 3197 0
1 -3182 -645 0
1 3182 -615 0
1 3182 586 0
1 -3182 3183 0
1 3182 -3197 0
1 3182 600 0
1 -3182 -541 0
1 3197 556 0
1 3197 3198 0
1 -3212 3211 0
1 -3212 -556 0
1 -3212 526 0
1 3212 -631 0
1 3212 571 0
1 3227 676 0
1 -3227 586 0
1 -3227 -526 0
1 -3227 661 0
1 -3227 -571 0
1 -3227 -541 0
1 -3227 511 0
1 -600 3168 0
1 600 3077 0
1 -600 -3047 0
1 -600 -615 0
1 615 -3047 0
1 -615 3032 0
1 -615 -600 0
1 -630 3093 0
1 630 -3063 0
1 630 -3197 0
1 -645 -3182 0
1 645 3093 0
1 645 3063 0
1 -645 -3032 0
1 3123 615 0
1 3123 721 0
1 -3123 -690 0
1 3138 736 0
1 3138 3137 0
1 -3138 660 0
1 -3138 630 0
1 3153 645 0
1 3153 721 0
1 -3168 586 0
1 -3168 -691 0
1 -3168 630 0
1 -660 3123 0
1 660 661 0
1 660 -3093 0
1 660 3002 0
1 -675 -676 0
1 -675 3017 0
1 690 -705 0
1 -690 3108 0
1 -690 3018 0
1 -690 3123 0
1 -705 3138 0
1 705 3048 0
1 -705 3018 0
1 3063 675 0
1 -3063 720 0
1 3063 -765 0
1 3093 3108 0
1 3093 645 0
1 -3108 -751 0
1 3108 690 0
1 -3108 -3093 0
1 720 -3018 0
1 720 -3003 0
1 735 -3033 0
1 -750 3048 0
1 750 3033 0
1 -750 3003 0
1 765 3018 0
1 765 -750 0
1 -765 -3063 0
1 765 3033 0
1 765 -3003 0
1 765 -766 0
1 3003 705 0
1 -3003 -3018 0
1 3003 -765 0
1 -3003 735 0
1 3018 -720 0
1 -3018 765 0
1 -3018 735 0
1 -3033 705 0
1 3033 750 0
1 -3033 765 0
1 3033 735 0
1 -3048 -705 0
1 3048 3047 0
1 -243 -3661 0
1 -243 3600 0
1 -243 -3570 0
1 -243 -3676 0
1 -258 3585 0
1 -258 -3691 0
1 -258 -3661 0
1 -258 -3570 0
1 -258 -3706 0
1 -258 -3676 0
1 258 -3615 0
1 273 3585 0
1 273 -3676 0
1 288 -3616 0
1 -288 3585 0
1 288 -3646 0
1 288 287 0
1 -3661 -258 0
1 -3661 303 0
1 3661 -318 0
1 3661 3676 0
1 3676 -288 0
1 -3676 -333 0
1 3676 3661 0
1 -3676 -303 0
1 3691 288 0
1 -3691 258 0
1 3691 -273 0
1 3691 -243 0
1 3706 -288 0
1 3706 258 0
1 -3706 3691 0
1 -303 -3555 0
1 303 -3646 0
1 303 -3570 0
1 -303 3540 0
1 318 3555 0
1 318 3526 0
1 -318 3661 0
1 -318 3570 0
1 333 -3556 0
1 -333 332 0
1 -333 -3601 0
1 -333 -3541 0
1 -333 -348 0
1 333 3676 0
1 -348 3631 0
1 -348 -347 0
1 -3601 -3600 0
1 -3601 438 0
1 -3601 -408 0
1 3601 -378 0
1 3616 -393 0
1 3616 363 0
1 3616 -303 0
1 -3616 -408 0
1 -3616 318 0
1 -3631 3646 0
1 3631 -303 0
1 -3631 -348 0
1 3631 318 0
1 -3646 -333 0
1 3646 -273 0
1 -3646 -438 0
1 -363 3496 0
1 -363 -3601 0
1 363 3571 0
1 -378 3616 0
1 378 3556 0
1 -378 3601 0
1 -378 -3451 0
1 378 -3571 0
1 -378 -377 0
1 393 3616 0
1 -393 -3586 0
1 393 -3512 0
1 -393 -3527 0
1 393 3497 0
1 393 3466 0
1 393 3571 0
1 408 -393 0
1 408 -3466 0
1 408 -3601 0
1 -408 407 0
1 408 -3482 0
1 -3541 498 0
1 3541 -3540 0
1 3541 408 0
1 3556 452 0
1 -3556 467 0
1 -3556 -437 0
1 3556 -408 0
1 -3571 483 0
1 -3571 378 0
1 -3586 -483 0
1 -3586 -3587 0
1 -3586 498 0
1 3586 438 0
1 -3586 408 0
1 -3586 -378 0
1 3586 -348 0
1 422 421 0
1 -422 3527 0
1 -422 -3497 0
1 -422 -3512 0
1 -422 -3451 0
1 437 3527 0
1 437 3466 0
1 437 3436 0
1 437 -436 0
1 452 3406 0
1 -452 -3391 0
1 -467 452 0
1 467 3437 0
1 467 3406 0
1 467 -3541 0
1 -467 -3512 0
1 3482 -512 0
1 3482 393 0
1 -3482 -527 0
1 -3482 408 0
1 3482 -543 0
1 3497 -482 0
1 -3497 -393 0
1 -3497 -3498 0
1 3497 -408 0
1 3497 3482 0
1 -3497 543 0
1 3512 452 0
1 -3512 -3527 0
1 -3512 -558 0
1 -3512 528 0
1 3512 498 0
1 3512 467 0
1 3527 513 0
1 3527 -483 0
1 3527 -422 0
1 -3527 3526 0
1 -3527 -393 0
1 -3527 3528 0
1 -3527 -543 0
1 -482 -481 0
1 482 -483 0
1 482 -3467 0
1 -482 3406 0
1 -482 497 0
1 -482 -3347 0
1 -482 -3452 0
1 497 -3452 0
1 -512 3362 0
1 -512 -3467 0
1 -527 -3332 0
1 527 3497 0
1 -527 3467 0
1 527 526 0
1 -527 3482 0
1 -527 -3452 0
1 -3422 587 0
1 -3422 602 0
1 -3422 3421 0
1 3422 -3423 0
1 -3437 -3436 0
1 -3437 467 0
1 3452 452 0
1 3452 -588 0
1 3452 -527 0
1 -3452 -497 0
1 3452 467 0
1 -3467 617 0
1 3467 3468 0
1 3467 527 0
1 -3467 -3452 0
1 -557 -3332 0
1 557 -556 0
1 -557 -3377 0
1 -572 3303 0
1 572 -3287 0
1 -587 -3392 0
1 -587 -3303 0
1 -587 3272 0
1 -587 -3437 0
1 587 -3407 0
1 3362 -512 0
1 -3362 -677 0
1 3362 631 0
1 -3362 601 0
1 3362 -572 0
1 -3377 -512 0
1 3377 3362 0
1 -3377 -677 0
1 3377 -646 0
1 -3377 616 0
1 3377 587 0
1 -3377 -662 0
1 -3377 -572 0
1 -3392 512 0
1 3392 677 0
1 -3392 -587 0
1 -3392 -557 0
1 3392 662 0
1 3392 -602 0
1 3392 572 0
1 -3407 512 0
1 3407 -647 0
1 -3407 527 0
1 -3407 632 0
1 601 -3362 0
1 -601 3333 0
1 -601 -600 0
1 616 3362 0
1 -616 617 0
1 -616 3242 0
1 616 601 0
1 -616 3227 0
1 631 3362 0
1 -631 3333 0
1 631 630 0
1 -631 -3288 0
1 646 -647 0
1 646 -3303 0
1 -646 3348 0
1 -646 631 0
1 3303 -646 0
1 3303 3302 0
1 -3303 616 0
1 3303 722 0
1 3303 691 0
1 -3303 661 0
1 3303 3318 0
1 -3303 572 0
1 -3318 -3303 0
1 -3318 722 0
1 3318 -3317 0
1 -3333 677 0
1 3348 -737 0
1 -3348 677 0
1 -661 -676 0
1 -661 -3243 0
1 661 3153 0
1 -661 3318 0
1 -676 -3168 0
1 676 -675 0
1 -676 3288 0
1 676 3197 0
1 691 -3213 0
1 -691 3183 0
1 -691 -690 0
1 691 -3228 0
1 -691 3198 0
1 -706 -3303 0
1 706 3273 0
1 -706 -3243 0
1 706 691 0
1 706 3258 0
1 3243 646 0
1 3243 -3242 0
1 -3243 751 0
1 3243 -661 0
1 3258 736 0
1 3258 706 0
1 3273 737 0
1 -3273 691 0
1 3273 -3288 0
1 -3288 706 0
1 -3288 676 0
1 3288 -646 0
1 3288 -752 0
1 3288 3287 0
1 721 736 0
1 -721 -3093 0
1 -721 3228 0
1 -736 -3108 0
1 736 -3213 0
1 -736 -3183 0
1 -736 -3093 0
1 -736 -3228 0
1 736 -3198 0
1 -736 735 0
1 751 3183 0
1 751 -752 0
1 751 766 0
1 -3183 -736 0
1 3183 -721 0
1 3183 -3198 0
1 -3198 -736 0
1 3198 706 0
1 -3198 -721 0
1 3198 691 0
1 -3213 -736 0
1 3213 -721 0
1 3213 -3228 0
1 3228 -3213 0
1 423 -3692 0
1 423 -3571 0
1 -423 3646 0
1 438 -3692 0
1 -438 -3601 0
1 -438 -3707 0
1 -438 3646 0
1 453 -3586 0
1 -453 3602 0
1 -453 3707 0
1 -453 3677 0
1 -453 3647 0
1 468 3617 0
1 468 3586 0
1 -468 3662 0
1 468 -467 0
1 468 -3571 0
1 468 -3707 0
1 3662 -483 0
1 -3662 528 0
1 3662 468 0
1 3662 -438 0
1 -3677 -3662 0
1 3677 -498 0
1 3677 -438 0
1 3692 3693 0
1 3692 3707 0
1 3707 423 0
1 -483 3556 0
1 -483 3527 0
1 483 3662 0
1 483 -498 0
1 -498 483 0
1 498 -3527 0
1 -498 -3662 0
1 -498 3512 0
1 498 3677 0
1 -498 3647 0
1 -513 -3617 0
1 -513 -3587 0
1 513 -3557 0
1 513 3572 0
1 513 3647 0
1 528 -513 0
1 -528 -3602 0
1 -528 -3542 0
1 3602 -3617 0
1 3602 -618 0
1 -3602 -498 0
1 3602 -468 0
1 -3617 453 0
1 3617 558 0
1 3617 -603 0
1 3632 -618 0
1 3632 -498 0
1 -3632 603 0
1 -3632 -3647 0
1 3647 -3648 0
1 -3647 483 0
1 3647 -468 0
1 3647 603 0
1 543 3587 0
1 543 -3557 0
1 -543 -3527 0
1 543 -3602 0
1 543 3572 0
1 -543 3512 0
1 -558 -3587 0
1 558 -3497 0
1 558 557 0
1 -558 -3542 0
1 -573 3557 0
1 -573 3498 0
1 -588 3602 0
1 -588 3513 0
1 -588 -573 0
1 3542 -513 0
1 -3542 3543 0
1 3542 3557 0
1 3542 -647 0
1 -3542 -617 0
1 3542 -558 0
1 3542 528 0
1 3542 663 0
1 3557 -3556 0
1 -3557 -617 0
1 3557 588 0
1 -3557 558 0
1 3572 -3587 0
1 -3572 678 0
1 3572 -648 0
1 3572 -3571 0
1 -3572 -573 0
1 3587 3588 0
1 -3587 663 0
1 -3587 543 0
1 -602 -3392 0
1 602 -3557 0
1 -602 -3498 0
1 602 3513 0
1 602 3437 0
1 602 -3483 0
1 -602 3542 0
1 -617 618 0
1 617 3467 0
1 -617 3422 0
1 -632 3513 0
1 632 3438 0
1 -632 3542 0
1 -632 631 0
1 -632 3483 0
1 -632 -3453 0
1 -647 648 0
1 -647 3498 0
1 647 3468 0
1 -647 3542 0
1 647 -632 0
1 3483 -738 0
1 -3483 573 0
1 3498 707 0
1 -3498 677 0
1 3498 588 0
1 -3498 -692 0
1 -3498 -632 0
1 3513 678 0
1 3513 3512 0
1 -3513 617 0
1 3513 -3528 0
1 -3513 -632 0
1 -3513 -602 0
1 -3528 708 0
1 -3528 -678 0
1 3528 693 0
1 3528 632 0
1 3528 573 0
1 662 -3438 0
1 662 -3377 0
1 -662 661 0
1 -677 -3333 0
1 677 -3407 0
1 -692 -3393 0
1 692 -3363 0
1 -692 -3333 0
1 -692 -3468 0
1 692 -3438 0
1 692 3408 0
1 692 3348 0
1 707 -3363 0
1 -3423 3438 0
1 -3423 -3422 0
1 -3438 737 0
1 -3438 -707 0
1 -3438 3423 0
1 -3438 647 0
1 -3438 -3437 0
1 -3438 -722 0
1 -3438 662 0
1 3438 632 0
1 -3438 767 0
1 -3453 738 0
1 -3453 3468 0
1 3453 662 0
1 3468 -768 0
1 3468 -738 0
1 3468 -3467 0
1 -3468 753 0
1 3468 -723 0
1 3468 -692 0
1 3468 662 0
1 722 -3363 0
1 -722 -3438 0
1 722 -3408 0
1 -722 721 0
1 722 -723 0
1 -722 -3318 0
1 737 722 0
1 -737 3378 0
1 -737 -3288 0
1 -737 -3423 0
1 752 -3393 0
1 -752 3423 0
1 752 -751 0
1 752 -3378 0
1 752 -3288 0
1 -767 -768 0
1 -767 -3363 0
1 767 -3438 0
1 767 -3288 0
1 -3363 -3362 0
1 3363 3378 0
1 -3363 -767 0
1 3378 -3363 0
1 -3378 -692 0
1 -3393 -692 0
1 3393 767 0
1 -3408 -3407 0
1 603 3617 0
1 603 618 0
1 603 -3632 0
1 603 -3602 0
1 603 -3678 0
1 618 -3587 0
1 618 617 0
1 618 -3663 0
1 618 -3632 0
1 -618 -3602 0
1 -618 3647 0
1 633 -3587 0
1 -633 -3603 0
1 633 3678 0
1 648 3648 0
1 -648 647 0
1 648 3663 0
1 648 3572 0
1 -3663 678 0
1 3663 618 0
1 3663 -663 0
1 3663 633 0
1 3663 603 0
1 -3678 -678 0
1 3678 648 0
1 3678 -3677 0
1 3693 -648 0
1 -3693 633 0
1 3693 -3708 0
1 -3708 618 0
1 3708 -603 0
1 -663 -3648 0
1 -663 -3633 0
1 663 3542 0
1 -678 -3648 0
1 678 -3618 0
1 -678 -3633 0
1 678 -3603 0
1 -693 -3648 0
1 693 -3633 0
1 693 692 0
1 693 -3513 0
1 -708 3648 0
1 708 707 0
1 -708 -3588 0
1 -708 -3558 0
1 708 -3573 0
1 -3603 663 0
1 3618 768 0
1 3618 -3617 0
1 3618 708 0
1 -3618 648 0
1 -3633 -3648 0
1 3633 708 0
1 -3648 3633 0
1 3648 3647 0
1 -723 -3573 0
1 -723 -3513 0
1 -723 3483 0
1 -738 -3588 0
1 -738 3558 0
1 -738 -3498 0
1 738 -3468 0
1 738 -3573 0
1 738 3453 0
1 753 768 0
1 -753 -3468 0
1 753 752 0
1 753 -3543 0
1 -768 -3618 0
1 768 -3453 0
1 3543 768 0
1 3543 -753 0
1 3543 -693 0
1 -3558 -3557 0
1 3558 -723 0
1 -3558 -3543 0
1 -3573 738 0
1 -3573 3588 0
1 -3588 753 0
1 3588 -723 0
1 3588 -693 0
1 -3588 -3573 0
